001 001 002 001 002 002 002 002 002 001 002 002 004 004 005 006 005 005 011 024 026 014 004 005 006 005 003 005 004 003 002
001 002 002 003 001 002 002 003 002 002 002 002 004 005 005 006 006 004 007 030 014 005 003 006 006 007 008 006 005 004 002
002 003 002 002 001 001 001 002 002 001 001 002 003 008 005 004 006 005 005 014 008 004 005 005 007 007 007 007 010 007 005
002 005 004 002 001 001 001 001 001 002 002 002 003 005 005 005 009 007 006 005 005 004 004 005 006 006 007 008 012 009 006
002 003 005 003 002 001 001 003 002 001 001 002 004 003 004 003 003 006 007 004 002 004 003 006 007 007 009 009 015 010 006
001 001 001 003 002 002 003 003 002 002 002 001 002 002 002 003 003 009 013 006 003 006 007 008 009 008 008 008 014 010 006
002 002 002 002 003 002 002 002 001 002 002 001 001 001 002 002 003 005 007 008 006 009 009 011 012 006 010 009 008 010 007
002 001 001 001 002 001 001 001 001 002 003 003 002 001 001 002 003 007 008 005 006 010 010 013 011 006 010 008 008 006 007
001 001 001 001 001 001 001 001 001 001 002 003 003 002 002 001 003 011 004 004 006 011 011 012 006 007 008 007 009 007 007
000 001 000 001 001 001 001 000 001 001 002 002 002 001 001 002 005 009 003 003 004 007 010 009 009 005 006 006 007 006 006
000 000 000 001 001 001 000 001 001 001 002 002 002 001 001 002 004 003 003 001 002 003 007 009 008 006 003 006 005 004 005
000 000 000 000 001 001 000 001 002 002 003 002 001 001 001 001 006 003 003 001 002 002 005 009 009 006 006 007 005 003 005
000 000 000 000 000 001 001 002 003 003 002 002 001 001 002 002 005 003 002 001 001 001 003 008 006 006 004 003 007 006 005
000 000 000 000 000 001 001 002 003 004 003 002 001 002 001 003 003 002 001 001 001 001 002 004 003 005 003 006 009 008 004
000 000 000 000 000 000 000 001 003 003 003 003 002 004 002 003 002 002 001 001 002 001 002 002 002 005 004 008 006 006 007
000 -99 000 000 000 000 000 001 003 002 003 004 004 003 005 002 004 002 001 002 002 002 002 002 003 006 008 009 010 008 005
-99 -99 000 000 000 000 000 001 002 004 003 003 005 006 008 003 005 003 002 002 002 002 001 004 003 008 014 017 015 018 012
000 000 000 000 000 000 000 001 005 003 006 005 005 007 010 010 009 006 005 002 005 002 004 005 003 012 019 025 046 026 016
000 000 000 000 001 001 001 004 006 008 011 005 006 010 018 037 019 006 005 005 005 003 006 006 013 024 043 072 083 071 023
000 000 001 001 002 002 005 010 011 010 012 006 006 014 043 083 037 012 012 013 012 008 011 011 020 048 039 066 078 134 026
000 001 001 003 003 003 007 014 016 015 012 005 004 017 047 073 052 022 017 012 016 015 020 031 058 046 031 048 050 105 048
000 001 001 005 005 004 007 015 021 021 011 005 006 021 031 055 080 028 023 022 024 022 020 030 057 036 026 039 039 065 031
001 002 002 004 006 004 006 019 024 025 011 006 007 017 026 041 070 052 033 042 033 035 018 029 050 033 024 022 028 029 016
001 001 002 006 006 003 011 028 030 015 009 008 007 016 023 036 056 083 060 050 044 035 021 033 043 035 022 017 025 021 012
002 001 002 004 010 002 006 025 021 005 003 003 005 010 021 032 055 072 082 044 060 028 028 037 042 034 020 023 016 015 015
002 007 007 007 012 010 009 023 028 016 003 003 001 006 022 022 042 052 083 055 069 025 025 058 085 034 030 037 033 014 017
004 015 015 010 019 033 028 025 029 010 001 001 001 006 021 020 042 048 081 080 080 053 069 056 075 052 026 046 035 015 016
010 021 013 010 014 030 035 031 017 004 001 001 003 028 025 034 046 077 062 071 060 047 061 100 098 048 030 048 050 018 017
007 015 010 007 006 010 029 025 006 002 001 001 003 046 054 044 066 053 032 054 048 047 085 089 048 096 052 054 052 030 028
008 007 003 003 003 004 003 006 002 001 000 001 006 040 048 054 073 040 025 031 042 025 075 134 100 114 078 073 087 058 058
004 002 002 001 002 003 001 001 003 001 000 003 008 017 017 039 057 032 023 022 039 034 089 118 105 109 118 100 129 075 072
002 001 002 001 002 004 000 001 001 000 000 003 006 014 022 037 031 021 010 015 020 035 087 121 126 116 100 100 109 105 072
001 001 001 000 001 001 001 000 001 000 001 001 002 010 015 013 027 011 006 009 007 030 056 092 090 092 128 118 126 085 089
001 001 001 000 000 000 000 001 000 000 000 001 002 006 012 017 021 009 005 005 007 022 026 046 056 075 044 085 100 107 116
002 001 001 000 001 000 001 000 000 000 001 002 002 004 007 015 018 006 005 005 002 009 009 022 028 061 041 056 066 128 123
001 002 001 001 001 001 001 000 000 000 002 005 003 004 010 013 017 010 004 001 002 004 005 010 010 019 026 035 044 085 066
002 002 001 001 001 001 000 000 000 000 001 003 006 006 005 007 013 016 003 002 002 002 003 006 008 017 016 030 034 048 048
002 001 001 001 001 001 000 000 000 000 001 001 003 005 003 009 010 016 003 001 003 001 001 001 004 011 007 012 013 033 044
001 001 002 000 000 000 000 000 000 000 000 000 002 002 002 002 001 003 004 001 003 001 000 000 002 006 004 004 008 016 033
000 000 001 000 000 000 000 000 000 000 000 000 001 000 001 000 001 002 003 000 003 001 000 000 002 005 004 005 008 017 029
000 000 000 000 000 000 000 000 000 000 000 000 000 000 000 000 001 001 000 001 001 000 001 000 001 001 003 004 008 033 033
000 000 000 000 000 000 000 000 000 000 000 000 000 000 000 001 001 000 000 001 001 001 001 001 000 001 001 004 012 030 029
000 000 000 000 000 000 000 000 000 000 000 000 000 000 000 002 002 001 000 000 000 003 003 002 002 001 001 003 014 015 011
000 000 000 000 000 000 000 000 000 000 000 000 000 000 001 003 001 001 000 000 000 008 009 007 006 001 001 003 005 012 011
000 000 000 000 000 000 000 000 000 000 000 000 000 000 000 001 001 000 000 000 002 013 013 022 010 002 001 003 005 008 006
000 001 001 000 000 000 000 000 000 000 000 000 000 000 000 001 000 000 000 000 006 011 023 025 012 003 001 004 008 009 006
001 003 003 001 000 000 000 000 000 000 000 000 000 000 000 001 001 000 000 002 008 010 017 021 015 004 003 007 006 006 004
001 003 003 002 001 001 000 000 000 000 000 000 000 000 001 001 001 000 001 001 005 008 012 012 006 006 005 005 005 004 002
001 000 001 001 002 002 001 000 000 000 000 000 000 000 001 000 000 000 003 001 002 005 009 007 005 006 004 004 005 001 000
001 000 000 000 001 001 001 002 000 000 000 000 000 000 001 000 000 001 003 002 003 005 005 004 006 007 005 006 003 001 000
001 000 000 000 000 000 001 001 001 001 000 000 000 001 000 000 000 003 005 004 006 005 004 002 006 009 006 004 002 001 001
000 000 000 000 000 000 000 000 001 001 000 000 000 000 000 000 000 006 007 010 005 005 003 002 003 005 007 005 001 002 001
000 000 000 000 000 000 000 000 000 000 000 000 000 000 000 000 001 005 009 009 007 004 002 001 001 003 005 002 001 001 000
000 000 000 000 000 000 000 000 000 000 000 000 000 000 000 000 001 005 012 014 011 005 002 001 000 000 002 002 001 000 000
000 000 000 000 000 000 000 000 000 000 -99 -99 -99 000 000 000 001 006 020 025 014 006 004 002 001 000 001 000 000 000 000
